WARNING: for repeatability, setting FPU to use double precision
============================[ Problem Statistics ]=============================
|                                                                             |
|  Number of variables:            50                                         |
|  Number of clauses:             218                                         |
|  Parse time:                   0.00 s                                       |
|                                                                             |
============================[ Search Statistics ]==============================
| Conflicts |          ORIGINAL         |          LEARNT          | Progress |
|           |    Vars  Clauses Literals |    Limit  Clauses Lit/Cl |          |
===============================================================================
===============================================================================
restarts              : 1
conflicts             : 80             (52980 /sec)
decisions             : 86             (0.00 % random) (56954 /sec)
propagations          : 1121           (742384 /sec)
conflict literals     : 318            (17.62 % deleted)
Memory used           : 20.00 MB
CPU time              : 0.00151 s

UNSATISFIABLE
